wr=176;
nProviders=35;

cost_worker=[ 176 196 139 179 110 182 93 90 115 147 153 142 122 115 145 167 177 132 85 105 181 80 93 124 159 142 197 167 117 192 109 125 101 139 132 ];
available_workers=[ 58 42 59 51 24 59 35 31 39 28 20 31 39 58 53 27 33 55 55 54 59 45 26 46 35 55 27 52 47 41 31 35 51 23 47 ];
cost_contract=[ 1752 2500 1700 1636 1252 2631 2697 1653 864 1821 1963 3298 1582 2981 2234 2307 858 915 2352 3465 1363 3475 2221 1015 3134 2521 2273 3091 1121 1947 3293 976 1455 1342 2218 ];
country=[ 15 16 6 5 4 6 8 19 3 7 8 1 17 12 6 17 5 19 19 6 8 1 11 16 1 14 9 8 19 10 17 15 3 5 6 ];
cost_1=5;
cost_2=7;
cost_3=160;
